(set-logic ALL)
(declare-fun var0 () String)
(assert (str.in_re var0 (re.++ (re.union (re.* (str.to_re "00")) (re.* (str.to_re "111"))) (re.++ (re.* (re.+ (str.to_re "222"))) (re.++ (re.* (re.* (str.to_re "3"))) (re.++ (re.+ (re.+ (str.to_re "44"))) (re.++ (re.+ (re.union (str.to_re "55") (str.to_re "66"))) (re.++ (re.+ (re.* (str.to_re "77"))) (re.++ (re.+ (re.* (str.to_re "8"))) (re.++ (re.+ (re.union (str.to_re "9") (str.to_re "aa"))) (re.++ (re.union (re.+ (str.to_re "bbb")) (re.+ (str.to_re "cc"))) (re.++ (re.union (re.+ (str.to_re "ddd")) (re.+ (str.to_re "e"))) (re.++ (re.* (re.union (str.to_re "fff") (str.to_re "ggg"))) (re.++ (re.* (re.* (str.to_re "h"))) (re.++ (re.+ (re.+ (str.to_re "iii"))) (re.++ (re.* (re.* (str.to_re "j"))) (re.++ (re.union (re.union (str.to_re "k") (str.to_re "l")) (re.union (str.to_re "mm") (str.to_re "n"))) (re.++ (re.+ (re.+ (str.to_re "ooo"))) (re.++ (re.+ (re.* (str.to_re "pp"))) (re.++ (re.* (re.union (str.to_re "qqq") (str.to_re "r"))) (re.++ (re.* (re.+ (str.to_re "ss"))) (re.++ (re.union (re.* (str.to_re "t")) (re.* (str.to_re "uu"))) (re.++ (re.+ (re.* (str.to_re "vv"))) (re.++ (re.* (re.* (str.to_re "ww"))) (re.++ (re.+ (re.* (str.to_re "x"))) (re.++ (re.union (re.* (str.to_re "yyy")) (re.* (str.to_re "zzz"))) (re.++ (re.union (re.* (str.to_re "AAA")) (re.* (str.to_re "BBB"))) (re.++ (re.+ (re.union (str.to_re "C") (str.to_re "DDD"))) (re.++ (re.union (re.union (str.to_re "E") (str.to_re "FF")) (re.union (str.to_re "G") (str.to_re "H"))) (re.++ (re.* (re.* (str.to_re "I"))) (re.++ (re.union (re.+ (str.to_re "J")) (re.+ (str.to_re "KK"))) (re.++ (re.+ (re.+ (str.to_re "L"))) (re.++ (re.* (re.union (str.to_re "MMM") (str.to_re "NNN"))) (re.++ (re.* (re.union (str.to_re "OOO") (str.to_re "PP"))) (re.++ (re.* (re.union (str.to_re "QQ") (str.to_re "RRR"))) (re.++ (re.* (re.+ (str.to_re "S"))) (re.++ (re.* (re.union (str.to_re "TTT") (str.to_re "UU"))) (re.++ (re.union (re.* (str.to_re "VV")) (re.* (str.to_re "WW"))) (re.++ (re.union (re.union (str.to_re "XX") (str.to_re "YYY")) (re.union (str.to_re "Z") (str.to_re "!!!"))) (re.++ (re.* (re.* (str.to_re """"""""))) (re.++ (re.+ (re.+ (str.to_re "##"))) (re.++ (re.+ (re.* (str.to_re "$$"))) (re.++ (re.union (re.* (str.to_re "%%%")) (re.* (str.to_re "&&"))) (re.++ (re.+ (re.+ (str.to_re "'''"))) (re.++ (re.union (re.union (str.to_re "(") (str.to_re ")))")) (re.union (str.to_re "***") (str.to_re "++"))) (re.++ (re.+ (re.+ (str.to_re ","))) (re.++ (re.* (re.* (str.to_re "-"))) (re.++ (re.* (re.* (str.to_re "."))) (re.++ (re.+ (re.+ (str.to_re "/"))) (re.++ (re.+ (re.+ (str.to_re "::"))) (re.++ (re.+ (re.* (str.to_re ";;;"))) (re.++ (re.union (re.union (str.to_re "<<<") (str.to_re "==")) (re.union (str.to_re ">>") (str.to_re "???"))) (re.++ (re.+ (re.union (str.to_re "@@@") (str.to_re "[["))) (re.++ (re.union (re.union (str.to_re "\\") (str.to_re "]]")) (re.union (str.to_re "^^^") (str.to_re "___"))) (re.++ (re.* (re.* (str.to_re "``"))) (re.++ (re.+ (re.* (str.to_re "{{{"))) (re.++ (re.* (re.+ (str.to_re "||"))) (re.++ (re.* (re.union (str.to_re "}}}") (str.to_re "~"))) (re.++ (re.* (re.+ (str.to_re "0"))) (re.++ (re.+ (re.union (str.to_re "111") (str.to_re "22"))) (re.++ (re.+ (re.union (str.to_re "3") (str.to_re "44"))) (re.++ (re.union (re.+ (str.to_re "55")) (re.+ (str.to_re "66"))) (re.++ (re.union (re.* (str.to_re "777")) (re.* (str.to_re "888"))) (re.++ (re.* (re.union (str.to_re "9") (str.to_re "aa"))) (re.++ (re.+ (re.+ (str.to_re "b"))) (re.union (re.union (str.to_re "ccc") (str.to_re "ddd")) (re.union (str.to_re "eee") (str.to_re "fff"))))))))))))))))))))))))))))))))))))))))))))))))))))))))))))))))))))
(check-sat)